Translating instance to solver...

GLPSOL--GLPK LP/MIP Solver 5.0
Parameter(s) specified in the command line:
 --tmlim 28800 --mipgap 0.0 --write /tmp/tmpa23nrktq.glpk.raw --wglp /tmp/tmpe6gwa0y0.glpk.glp
 --cpxlp /tmp/tmps0s8gubl.pyomo.lp
Reading problem data from '/tmp/tmps0s8gubl.pyomo.lp'...
/tmp/tmps0s8gubl.pyomo.lp:718803: warning: lower bound of variable 'x2' redefined
/tmp/tmps0s8gubl.pyomo.lp:718803: warning: upper bound of variable 'x2' redefined
121798 rows, 67208 columns, 285987 non-zeros
67208 integer variables, 67139 of which are binary
785942 lines were read
Writing problem data to '/tmp/tmpe6gwa0y0.glpk.glp'...
551563 lines were written
GLPK Integer Optimizer 5.0
121798 rows, 67208 columns, 285987 non-zeros
67208 integer variables, 67139 of which are binary
Preprocessing...
341 hidden packing inequaliti(es) were detected
18029 hidden covering inequaliti(es) were detected
198 constraint coefficient(s) were reduced
64185 rows, 25073 columns, 159036 non-zeros
25073 integer variables, 25005 of which are binary
Scaling...
 A: min|aij| =  1.000e+00  max|aij| =  6.800e+01  ratio =  6.800e+01
GM: min|aij| =  5.155e-01  max|aij| =  1.940e+00  ratio =  3.763e+00
EQ: min|aij| =  2.728e-01  max|aij| =  1.000e+00  ratio =  3.666e+00
2N: min|aij| =  2.500e-01  max|aij| =  1.375e+00  ratio =  5.500e+00
Constructing initial basis...
Size of triangular part is 64185
Solving LP relaxation...
GLPK Simplex Optimizer 5.0
64185 rows, 25073 columns, 159036 non-zeros
      0: obj =   0.000000000e+00 inf =   1.156e+02 (212)
Perturbing LP to avoid stalling [232]...
   2766: obj =   6.243843419e+00 inf =   1.703e-05 (0) 9
Removing LP perturbation [5156]...
*  5156: obj =   1.223564000e+00 inf =   2.237e-13 (0) 11
OPTIMAL LP SOLUTION FOUND
Integer optimization begins...
Long-step dual simplex will be used
+  5156: mip =     not found yet >=              -inf        (1; 0)
+  5801: mip =     not found yet >=   1.223564000e+00        (10; 0)
+  6389: mip =     not found yet >=   1.223564000e+00        (22; 1)
+  6936: mip =     not found yet >=   1.223564000e+00        (43; 1)
+  7770: mip =     not found yet >=   1.223564000e+00        (49; 2)
+  8646: mip =     not found yet >=   1.223564000e+00        (66; 2)
+  9331: mip =     not found yet >=   1.223564000e+00        (81; 3)
+  9617: mip =     not found yet >=   1.223564000e+00        (100; 4)
+ 10083: mip =     not found yet >=   1.223564000e+00        (116; 4)
+ 10748: mip =     not found yet >=   1.223564000e+00        (133; 6)
+ 11568: mip =     not found yet >=   1.223564000e+00        (151; 6)
+ 12984: mip =     not found yet >=   1.223564000e+00        (163; 7)
Time used: 60.1 secs.  Memory used: 97.8 Mb.
+ 14178: mip =     not found yet >=   1.223564000e+00        (184; 7)
+ 14808: mip =     not found yet >=   1.223564000e+00        (198; 8)
+ 15141: mip =     not found yet >=   1.223564000e+00        (221; 8)
+ 15218: mip =     not found yet >=   1.223564000e+00        (247; 8)
+ 15329: mip =     not found yet >=   1.223564000e+00        (273; 8)
+ 15361: mip =     not found yet >=   1.223564000e+00        (305; 8)
+ 15402: mip =     not found yet >=   1.223564000e+00        (336; 8)
+ 15808: mip =     not found yet >=   1.223564000e+00        (361; 8)
+ 16785: mip =     not found yet >=   1.223564000e+00        (374; 9)
+ 17030: mip =     not found yet >=   1.223564000e+00        (390; 9)
+ 17634: mip =     not found yet >=   1.223564000e+00        (404; 10)
+ 17995: mip =     not found yet >=   1.223564000e+00        (425; 11)
Time used: 120.3 secs.  Memory used: 103.2 Mb.
+ 18361: mip =     not found yet >=   1.223564000e+00        (442; 11)
+ 19137: mip =     not found yet >=   1.223564000e+00        (454; 12)
+ 19977: mip =     not found yet >=   1.223564000e+00        (468; 13)
+ 20360: mip =     not found yet >=   1.223564000e+00        (481; 13)
+ 20948: mip =     not found yet >=   1.223564000e+00        (497; 14)
+ 21159: mip =     not found yet >=   1.223564000e+00        (513; 14)
+ 21601: mip =     not found yet >=   1.223564000e+00        (531; 15)
+ 22319: mip =     not found yet >=   1.223564000e+00        (547; 16)
+ 22364: mip =     not found yet >=   1.223564000e+00        (560; 16)
+ 23462: mip =     not found yet >=   1.223564000e+00        (571; 17)
+ 23581: mip =     not found yet >=   1.223564000e+00        (589; 18)
Time used: 180.5 secs.  Memory used: 107.1 Mb.
+ 24513: mip =     not found yet >=   1.223564000e+00        (608; 18)
+ 25664: mip =     not found yet >=   1.223564000e+00        (621; 19)
+ 26845: mip =     not found yet >=   1.223564000e+00        (631; 20)
+ 27580: mip =     not found yet >=   1.223564000e+00        (642; 20)
+ 28630: mip =     not found yet >=   1.223564000e+00        (651; 21)
+ 29729: mip =     not found yet >=   1.223564000e+00        (666; 22)
+ 30906: mip =     not found yet >=   1.223564000e+00        (681; 24)
+ 31273: mip =     not found yet >=   1.223564000e+00        (691; 24)
+ 31375: mip =     not found yet >=   1.223564000e+00        (706; 24)
+ 31451: mip =     not found yet >=   1.223564000e+00        (721; 24)
+ 31635: mip =     not found yet >=   1.223564000e+00        (736; 24)
+ 31925: mip =     not found yet >=   1.223564000e+00        (750; 24)
Time used: 240.8 secs.  Memory used: 111.0 Mb.
+ 32537: mip =     not found yet >=   1.223564000e+00        (763; 25)
+ 33001: mip =     not found yet >=   1.223564000e+00        (770; 26)
+ 33828: mip =     not found yet >=   1.223564000e+00        (780; 26)
+ 33895: mip =     not found yet >=   1.223564000e+00        (791; 26)
+ 34779: mip =     not found yet >=   1.223564000e+00        (798; 27)
+ 34931: mip =     not found yet >=   1.223564000e+00        (810; 27)
+ 35111: mip =     not found yet >=   1.223564000e+00        (822; 27)
+ 36372: mip =     not found yet >=   1.223564000e+00        (844; 28)
+ 37533: mip =     not found yet >=   1.223564000e+00        (873; 30)
+ 38591: mip =     not found yet >=   1.223564000e+00        (899; 31)
+ 39760: mip =     not found yet >=   1.223564000e+00        (918; 32)
+ 40651: mip =     not found yet >=   1.223564000e+00        (937; 33)
Time used: 300.9 secs.  Memory used: 115.5 Mb.
+ 40927: mip =     not found yet >=   1.223564000e+00        (961; 33)
+ 40953: mip =     not found yet >=   1.223564000e+00        (987; 33)
+ 41444: mip =     not found yet >=   1.223564000e+00        (994; 34)
+ 41852: mip =     not found yet >=   1.223564000e+00        (1006; 34)
+ 42905: mip =     not found yet >=   1.223564000e+00        (1022; 35)
+ 44422: mip =     not found yet >=   1.223564000e+00        (1042; 41)
+ 45363: mip =     not found yet >=   1.223564000e+00        (1084; 42)
+ 46210: mip =     not found yet >=   1.223564000e+00        (1101; 44)
+ 46796: mip =     not found yet >=   1.223564000e+00        (1124; 45)
+ 47667: mip =     not found yet >=   1.223564000e+00        (1140; 47)
+ 47689: mip =     not found yet >=   1.223564000e+00        (1160; 47)
Time used: 361.0 secs.  Memory used: 125.1 Mb.
+ 47709: mip =     not found yet >=   1.223564000e+00        (1180; 47)
+ 47729: mip =     not found yet >=   1.223564000e+00        (1200; 47)
+ 47780: mip =     not found yet >=   1.223564000e+00        (1219; 47)
+ 47807: mip =     not found yet >=   1.223564000e+00        (1238; 47)
+ 47832: mip =     not found yet >=   1.223564000e+00        (1257; 47)
+ 47857: mip =     not found yet >=   1.223564000e+00        (1276; 47)
+ 47883: mip =     not found yet >=   1.223564000e+00        (1295; 47)
+ 47912: mip =     not found yet >=   1.223564000e+00        (1314; 47)
+ 47953: mip =     not found yet >=   1.223564000e+00        (1334; 47)
+ 47982: mip =     not found yet >=   1.223564000e+00        (1356; 47)
+ 48011: mip =     not found yet >=   1.223564000e+00        (1378; 47)
+ 48099: mip =     not found yet >=   1.223564000e+00        (1400; 47)
Time used: 421.1 secs.  Memory used: 125.3 Mb.
+ 48768: mip =     not found yet >=   1.223564000e+00        (1423; 48)
+ 49060: mip =     not found yet >=   1.223564000e+00        (1443; 48)
+ 49103: mip =     not found yet >=   1.223564000e+00        (1473; 48)
+ 49141: mip =     not found yet >=   1.223564000e+00        (1502; 48)
+ 49180: mip =     not found yet >=   1.223564000e+00        (1531; 48)
+ 49219: mip =     not found yet >=   1.223564000e+00        (1560; 48)
+ 49257: mip =     not found yet >=   1.223564000e+00        (1589; 48)
+ 49296: mip =     not found yet >=   1.223564000e+00        (1618; 48)
+ 49984: mip =     not found yet >=   1.223564000e+00        (1640; 49)
+ 50971: mip =     not found yet >=   1.223564000e+00        (1662; 50)
+ 51240: mip =     not found yet >=   1.223564000e+00        (1711; 50)
+ 51295: mip =     not found yet >=   1.223564000e+00        (1766; 50)
Time used: 481.1 secs.  Memory used: 129.3 Mb.
+ 51602: mip =     not found yet >=   1.223564000e+00        (1806; 51)
+ 51834: mip =     not found yet >=   1.223564000e+00        (1828; 51)
+ 53007: mip =     not found yet >=   1.223564000e+00        (1849; 55)
+ 54613: mip =     not found yet >=   1.223564000e+00        (1870; 62)
+ 56018: mip =     not found yet >=   1.223564000e+00        (1906; 65)
+ 57044: mip =     not found yet >=   1.223564000e+00        (1925; 68)
+ 58507: mip =     not found yet >=   1.223564000e+00        (1963; 70)
+ 59563: mip =     not found yet >=   1.223564000e+00        (1977; 71)
+ 59671: mip =     not found yet >=   1.223564000e+00        (2002; 71)
+ 59697: mip =     not found yet >=   1.223564000e+00        (2028; 71)
+ 60174: mip =     not found yet >=   1.223564000e+00        (2050; 71)
+ 60246: mip =     not found yet >=   1.223564000e+00        (2075; 71)
Time used: 541.2 secs.  Memory used: 141.0 Mb.
+ 60272: mip =     not found yet >=   1.223564000e+00        (2100; 71)
+ 60301: mip =     not found yet >=   1.223564000e+00        (2124; 71)
+ 60333: mip =     not found yet >=   1.223564000e+00        (2148; 71)
+ 60365: mip =     not found yet >=   1.223564000e+00        (2172; 71)
+ 60397: mip =     not found yet >=   1.223564000e+00        (2196; 71)
+ 60891: mip =     not found yet >=   1.223564000e+00        (2219; 72)
+ 60919: mip =     not found yet >=   1.223564000e+00        (2247; 72)
+ 60947: mip =     not found yet >=   1.223564000e+00        (2275; 72)
+ 61058: mip =     not found yet >=   1.223564000e+00        (2309; 72)
+ 61094: mip =     not found yet >=   1.223564000e+00        (2345; 72)
+ 62079: mip =     not found yet >=   1.223564000e+00        (2382; 74)
Time used: 601.2 secs.  Memory used: 145.0 Mb.
+ 62585: mip =     not found yet >=   1.223564000e+00        (2420; 74)
+ 63281: mip =     not found yet >=   1.223564000e+00        (2453; 76)
+ 64532: mip =     not found yet >=   1.223564000e+00        (2479; 78)
+ 64799: mip =     not found yet >=   1.223564000e+00        (2511; 78)
+ 64847: mip =     not found yet >=   1.223564000e+00        (2559; 78)
+ 64895: mip =     not found yet >=   1.223564000e+00        (2607; 78)
+ 66169: mip =     not found yet >=   1.223564000e+00        (2635; 79)
+ 67183: mip =     not found yet >=   1.223564000e+00        (2655; 81)
+ 68479: mip =     not found yet >=   1.223564000e+00        (2675; 82)
+ 69023: mip =     not found yet >=   1.223564000e+00        (2704; 83)
+ 70333: mip =     not found yet >=   1.223564000e+00        (2729; 87)
+ 71117: mip =     not found yet >=   1.223564000e+00        (2779; 91)
Time used: 661.3 secs.  Memory used: 152.5 Mb.
+ 71614: mip =     not found yet >=   1.223564000e+00        (2844; 91)
+ 73109: mip =     not found yet >=   1.223564000e+00        (2874; 93)
+ 74745: mip =     not found yet >=   1.223564000e+00        (2900; 96)
+ 75330: mip =     not found yet >=   1.223564000e+00        (2941; 97)
+ 77243: mip =     not found yet >=   1.223564000e+00        (2959; 99)
+ 77547: mip =     not found yet >=   1.223564000e+00        (2977; 99)
+ 78571: mip =     not found yet >=   1.223564000e+00        (2993; 101)
+ 79409: mip =     not found yet >=   1.223564000e+00        (3024; 102)
+ 80662: mip =     not found yet >=   1.223564000e+00        (3054; 109)
+ 81748: mip =     not found yet >=   1.223564000e+00        (3080; 110)
+ 82233: mip =     not found yet >=   1.223564000e+00        (3106; 112)
+ 82263: mip =     not found yet >=   1.223564000e+00        (3136; 112)
Time used: 721.4 secs.  Memory used: 164.4 Mb.
+ 82296: mip =     not found yet >=   1.223564000e+00        (3166; 112)
+ 82531: mip =     not found yet >=   1.223564000e+00        (3194; 113)
+ 82867: mip =     not found yet >=   1.223564000e+00        (3217; 113)
+ 82896: mip =     not found yet >=   1.223564000e+00        (3246; 113)
+ 82931: mip =     not found yet >=   1.223564000e+00        (3275; 113)
+ 82959: mip =     not found yet >=   1.223564000e+00        (3303; 113)
+ 82987: mip =     not found yet >=   1.223564000e+00        (3331; 113)
+ 83576: mip =     not found yet >=   1.223564000e+00        (3347; 113)
+ 84122: mip =     not found yet >=   1.223564000e+00        (3359; 116)
+ 84366: mip =     not found yet >=   1.223564000e+00        (3385; 116)
+ 84395: mip =     not found yet >=   1.223564000e+00        (3414; 116)
+ 84427: mip =     not found yet >=   1.223564000e+00        (3444; 116)
Time used: 781.5 secs.  Memory used: 169.0 Mb.
+ 84457: mip =     not found yet >=   1.223564000e+00        (3474; 116)
+ 84902: mip =     not found yet >=   1.223564000e+00        (3505; 117)
+ 85168: mip =     not found yet >=   1.223564000e+00        (3557; 117)
+ 85311: mip =     not found yet >=   1.223564000e+00        (3605; 117)
+ 85455: mip =     not found yet >=   1.223564000e+00        (3653; 117)
+ 85755: mip =     not found yet >=   1.223564000e+00        (3691; 117)
+ 86778: mip =     not found yet >=   1.223564000e+00        (3714; 118)
+ 87538: mip =     not found yet >=   1.223564000e+00        (3733; 119)
+ 88104: mip =     not found yet >=   1.223564000e+00        (3757; 121)
+ 89757: mip =     not found yet >=   1.223564000e+00        (3780; 121)
+ 90147: mip =     not found yet >=   1.223564000e+00        (3783; 122)
Time used: 841.6 secs.  Memory used: 174.2 Mb.
+ 91506: mip =     not found yet >=   1.223564000e+00        (3810; 127)
+ 92300: mip =     not found yet >=   1.223564000e+00        (3842; 128)
+ 93552: mip =     not found yet >=   1.223564000e+00        (3873; 130)
+ 94915: mip =     not found yet >=   1.223564000e+00        (3892; 133)
+ 96053: mip =     not found yet >=   1.223564000e+00        (3918; 134)
+ 97175: mip =     not found yet >=   1.223564000e+00        (3940; 137)
+ 98110: mip =     not found yet >=   1.223564000e+00        (3969; 140)
+ 99500: mip =     not found yet >=   1.223564000e+00        (3987; 142)
+100540: mip =     not found yet >=   1.223564000e+00        (4007; 143)
+101339: mip =     not found yet >=   1.223564000e+00        (4017; 145)
+102432: mip =     not found yet >=   1.223564000e+00        (4035; 146)
+103462: mip =     not found yet >=   1.223564000e+00        (4053; 147)
Time used: 901.8 secs.  Memory used: 185.0 Mb.
+104124: mip =     not found yet >=   1.223564000e+00        (4069; 148)
+105209: mip =     not found yet >=   1.223564000e+00        (4099; 150)
+105965: mip =     not found yet >=   1.223564000e+00        (4111; 150)
+106440: mip =     not found yet >=   1.223564000e+00        (4128; 151)
+109436: mip =     not found yet >=   1.223564000e+00        (4135; 152)
+110334: mip =     not found yet >=   1.223564000e+00        (4148; 152)
+111020: mip =     not found yet >=   1.223564000e+00        (4159; 153)
+111677: mip =     not found yet >=   1.223564000e+00        (4169; 153)
+112108: mip =     not found yet >=   1.223564000e+00        (4172; 153)
+112163: mip =     not found yet >=   1.223564000e+00        (4183; 153)
+112614: mip =     not found yet >=   1.223564000e+00        (4196; 153)
+112730: mip =     not found yet >=   1.223564000e+00        (4228; 153)
Time used: 961.9 secs.  Memory used: 188.3 Mb.
+113527: mip =     not found yet >=   1.223564000e+00        (4263; 154)
+114006: mip =     not found yet >=   1.223564000e+00        (4281; 155)
+115196: mip =     not found yet >=   1.223564000e+00        (4307; 156)
+116415: mip =     not found yet >=   1.223564000e+00        (4331; 187)
+117358: mip =     not found yet >=   1.223564000e+00        (4348; 188)
+117953: mip =     not found yet >=   1.223564000e+00        (4364; 189)
+119009: mip =     not found yet >=   1.223564000e+00        (4387; 194)
+119891: mip =     not found yet >=   1.223564000e+00        (4403; 198)
+121033: mip =     not found yet >=   1.223564000e+00        (4416; 203)
+122550: mip =     not found yet >=   1.223564000e+00        (4423; 224)
+123875: mip =     not found yet >=   1.223564000e+00        (4432; 225)
+124710: mip =     not found yet >=   1.223564000e+00        (4458; 226)
Time used: 1022.0 secs.  Memory used: 195.1 Mb.
+125316: mip =     not found yet >=   1.223564000e+00        (4494; 227)
+126216: mip =     not found yet >=   1.223564000e+00        (4517; 229)
+127044: mip =     not found yet >=   1.223564000e+00        (4554; 231)
+128429: mip =     not found yet >=   1.223564000e+00        (4583; 236)
+129132: mip =     not found yet >=   1.223564000e+00        (4605; 237)
+129694: mip =     not found yet >=   1.223564000e+00        (4615; 237)
+130453: mip =     not found yet >=   1.223564000e+00        (4629; 239)
+131614: mip =     not found yet >=   1.223564000e+00        (4656; 240)
+132924: mip =     not found yet >=   1.223564000e+00        (4697; 245)
+133786: mip =     not found yet >=   1.223564000e+00        (4718; 246)
+134418: mip =     not found yet >=   1.223564000e+00        (4726; 247)
Time used: 1082.1 secs.  Memory used: 202.2 Mb.
+135343: mip =     not found yet >=   1.223564000e+00        (4751; 249)
+135815: mip =     not found yet >=   1.223564000e+00        (4763; 249)
+136520: mip =     not found yet >=   1.223564000e+00        (4788; 249)
+137002: mip =     not found yet >=   1.223564000e+00        (4815; 250)
+137645: mip =     not found yet >=   1.223564000e+00        (4840; 251)
+137914: mip =     not found yet >=   1.223564000e+00        (4851; 251)
+138492: >>>>>   1.835346000e+00 >=   1.223564000e+00  33.3% (4866; 251)
+139693: mip =   1.835346000e+00 >=   1.223564000e+00  33.3% (1470; 7031)
+140414: mip =   1.835346000e+00 >=   1.223564000e+00  33.3% (1481; 7036)
+140684: mip =   1.835346000e+00 >=   1.223564000e+00  33.3% (1508; 7037)
+142041: mip =   1.835346000e+00 >=   1.223564000e+00  33.3% (1516; 7044)
+144035: mip =   1.835346000e+00 >=   1.223564000e+00  33.3% (1525; 7055)
Time used: 1142.6 secs.  Memory used: 205.5 Mb.
+145513: mip =   1.835346000e+00 >=   1.223564000e+00  33.3% (1538; 7057)
+146948: mip =   1.835346000e+00 >=   1.223564000e+00  33.3% (1549; 7060)
+148491: mip =   1.835346000e+00 >=   1.223564000e+00  33.3% (1576; 7067)
+150434: mip =   1.835346000e+00 >=   1.223564000e+00  33.3% (1594; 7076)
+152145: mip =   1.835346000e+00 >=   1.223564000e+00  33.3% (1625; 7080)
+153241: mip =   1.835346000e+00 >=   1.223564000e+00  33.3% (1664; 7081)
+154440: mip =   1.835346000e+00 >=   1.223564000e+00  33.3% (1696; 7084)
+155629: mip =   1.835346000e+00 >=   1.223564000e+00  33.3% (1722; 7093)
+157137: mip =   1.835346000e+00 >=   1.223564000e+00  33.3% (1744; 7104)
+158479: mip =   1.835346000e+00 >=   1.223564000e+00  33.3% (1759; 7115)
+159534: mip =   1.835346000e+00 >=   1.223564000e+00  33.3% (1812; 7119)
+159728: mip =   1.835346000e+00 >=   1.223564000e+00  33.3% (1913; 7119)
Time used: 1202.6 secs.  Memory used: 269.4 Mb.
+159862: mip =   1.835346000e+00 >=   1.223564000e+00  33.3% (2008; 7119)
+160743: mip =   1.835346000e+00 >=   1.223564000e+00  33.3% (2055; 7123)
+161554: mip =   1.835346000e+00 >=   1.223564000e+00  33.3% (2072; 7126)
+162547: mip =   1.835346000e+00 >=   1.223564000e+00  33.3% (2094; 7128)
+163291: mip =   1.835346000e+00 >=   1.223564000e+00  33.3% (2097; 7128)
+163342: mip =   1.835346000e+00 >=   1.223564000e+00  33.3% (2101; 7128)
+163634: mip =   1.835346000e+00 >=   1.223564000e+00  33.3% (2107; 7128)
+164464: mip =   1.835346000e+00 >=   1.223564000e+00  33.3% (2119; 7130)
+164502: mip =   1.835346000e+00 >=   1.223564000e+00  33.3% (2137; 7130)
+164552: mip =   1.835346000e+00 >=   1.223564000e+00  33.3% (2152; 7130)
+164567: mip =   1.835346000e+00 >=   1.223564000e+00  33.3% (2167; 7130)
+164582: mip =   1.835346000e+00 >=   1.223564000e+00  33.3% (2182; 7130)
Time used: 1262.9 secs.  Memory used: 281.3 Mb.
+165472: mip =   1.835346000e+00 >=   1.223564000e+00  33.3% (2191; 7131)
+166779: mip =   1.835346000e+00 >=   1.223564000e+00  33.3% (2195; 7133)
+166810: mip =   1.835346000e+00 >=   1.223564000e+00  33.3% (2202; 7133)
+167212: mip =   1.835346000e+00 >=   1.223564000e+00  33.3% (2207; 7134)
+167525: mip =   1.835346000e+00 >=   1.223564000e+00  33.3% (2210; 7134)
+167605: mip =   1.835346000e+00 >=   1.223564000e+00  33.3% (2214; 7134)
+168484: mip =   1.835346000e+00 >=   1.223564000e+00  33.3% (2226; 7135)
+168811: mip =   1.835346000e+00 >=   1.223564000e+00  33.3% (2238; 7135)
+169312: mip =   1.835346000e+00 >=   1.223564000e+00  33.3% (2246; 7136)
+169867: mip =   1.835346000e+00 >=   1.223564000e+00  33.3% (2254; 7137)
+171201: mip =   1.835346000e+00 >=   1.223564000e+00  33.3% (2260; 7139)
Time used: 1323.2 secs.  Memory used: 291.0 Mb.
+172119: mip =   1.835346000e+00 >=   1.223564000e+00  33.3% (2274; 7141)
+172766: mip =   1.835346000e+00 >=   1.223564000e+00  33.3% (2290; 7142)
+173455: mip =   1.835346000e+00 >=   1.223564000e+00  33.3% (2305; 7144)
+174289: mip =   1.835346000e+00 >=   1.223564000e+00  33.3% (2317; 7144)
+176032: mip =   1.835346000e+00 >=   1.223564000e+00  33.3% (2331; 7150)
+177070: mip =   1.835346000e+00 >=   1.223564000e+00  33.3% (2336; 7187)
+178035: mip =   1.835346000e+00 >=   1.223564000e+00  33.3% (2343; 7189)
+179698: mip =   1.835346000e+00 >=   1.223564000e+00  33.3% (2364; 7191)
+180345: mip =   1.835346000e+00 >=   1.223564000e+00  33.3% (2372; 7192)
+180953: mip =   1.835346000e+00 >=   1.223564000e+00  33.3% (2390; 7193)
+182213: mip =   1.835346000e+00 >=   1.223564000e+00  33.3% (2431; 7199)
Time used: 1383.7 secs.  Memory used: 312.5 Mb.
+184018: mip =   1.835346000e+00 >=   1.223564000e+00  33.3% (2409; 7256)
+185849: mip =   1.835346000e+00 >=   1.223564000e+00  33.3% (2434; 7261)
+187512: mip =   1.835346000e+00 >=   1.223564000e+00  33.3% (2428; 7307)
+188318: mip =   1.835346000e+00 >=   1.223564000e+00  33.3% (2435; 7322)
+188657: mip =   1.835346000e+00 >=   1.223564000e+00  33.3% (2443; 7323)
+189605: mip =   1.835346000e+00 >=   1.223564000e+00  33.3% (2451; 7324)
+190587: mip =   1.835346000e+00 >=   1.223564000e+00  33.3% (2463; 7325)
+191526: mip =   1.835346000e+00 >=   1.223564000e+00  33.3% (2468; 7326)
+192302: mip =   1.835346000e+00 >=   1.223564000e+00  33.3% (2469; 7327)
+193421: mip =   1.835346000e+00 >=   1.223564000e+00  33.3% (2477; 7328)
+194312: mip =   1.835346000e+00 >=   1.223564000e+00  33.3% (2486; 7329)
+194953: mip =   1.835346000e+00 >=   1.223564000e+00  33.3% (2491; 7330)
Time used: 1444.0 secs.  Memory used: 324.6 Mb.
+195032: mip =   1.835346000e+00 >=   1.223564000e+00  33.3% (2496; 7330)
+195443: mip =   1.835346000e+00 >=   1.223564000e+00  33.3% (2501; 7331)
+196805: mip =   1.835346000e+00 >=   1.223564000e+00  33.3% (2517; 7338)
+197633: mip =   1.835346000e+00 >=   1.223564000e+00  33.3% (2526; 7344)
+198630: mip =   1.835346000e+00 >=   1.223564000e+00  33.3% (2539; 7351)
+199660: mip =   1.835346000e+00 >=   1.223564000e+00  33.3% (2571; 7358)
+200753: mip =   1.835346000e+00 >=   1.223564000e+00  33.3% (2555; 7433)
+203369: mip =   1.835346000e+00 >=   1.223564000e+00  33.3% (2553; 7471)
+204383: mip =   1.835346000e+00 >=   1.223564000e+00  33.3% (2564; 7472)
+205830: mip =   1.835346000e+00 >=   1.223564000e+00  33.3% (2587; 7476)
+207249: mip =   1.835346000e+00 >=   1.223564000e+00  33.3% (2598; 7481)
Time used: 1504.1 secs.  Memory used: 359.6 Mb.
+209048: mip =   1.835346000e+00 >=   1.223564000e+00  33.3% (2608; 7523)
+210907: mip =   1.835346000e+00 >=   1.223564000e+00  33.3% (2622; 7526)
+212364: mip =   1.835346000e+00 >=   1.223564000e+00  33.3% (2628; 7530)
+213933: mip =   1.835346000e+00 >=   1.223564000e+00  33.3% (2630; 7532)
+215507: mip =   1.835346000e+00 >=   1.223564000e+00  33.3% (2644; 7533)
+215757: mip =   1.835346000e+00 >=   1.223564000e+00  33.3% (2674; 7533)
+216803: mip =   1.835346000e+00 >=   1.223564000e+00  33.3% (2695; 7534)
+217910: mip =   1.835346000e+00 >=   1.223564000e+00  33.3% (2704; 7537)
+218875: mip =   1.835346000e+00 >=   1.223564000e+00  33.3% (2719; 7538)
+219752: mip =   1.835346000e+00 >=   1.223564000e+00  33.3% (2731; 7539)
+220603: mip =   1.835346000e+00 >=   1.223564000e+00  33.3% (2732; 7540)
+221416: mip =   1.835346000e+00 >=   1.223564000e+00  33.3% (2743; 7541)
Time used: 1564.2 secs.  Memory used: 373.2 Mb.
+222405: mip =   1.835346000e+00 >=   1.223564000e+00  33.3% (2761; 7542)
+224018: mip =   1.835346000e+00 >=   1.223564000e+00  33.3% (2797; 7549)
+225417: mip =   1.835346000e+00 >=   1.223564000e+00  33.3% (2822; 7554)
+226799: mip =   1.835346000e+00 >=   1.223564000e+00  33.3% (2855; 7559)
+228513: mip =   1.835346000e+00 >=   1.223564000e+00  33.3% (2872; 7575)
+229830: mip =   1.835346000e+00 >=   1.223564000e+00  33.3% (2893; 7597)
+231044: mip =   1.835346000e+00 >=   1.223564000e+00  33.3% (2925; 7601)
+232916: mip =   1.835346000e+00 >=   1.223564000e+00  33.3% (2916; 7628)
+234172: mip =   1.835346000e+00 >=   1.223564000e+00  33.3% (2923; 7628)
+235559: mip =   1.835346000e+00 >=   1.223564000e+00  33.3% (2934; 7629)
+236352: mip =   1.835346000e+00 >=   1.223564000e+00  33.3% (2942; 7630)
Time used: 1624.4 secs.  Memory used: 395.5 Mb.
+237530: mip =   1.835346000e+00 >=   1.223564000e+00  33.3% (2948; 7631)
+238968: mip =   1.835346000e+00 >=   1.223564000e+00  33.3% (2953; 7634)
+239649: mip =   1.835346000e+00 >=   1.223564000e+00  33.3% (2963; 7636)
+240213: mip =   1.835346000e+00 >=   1.223564000e+00  33.3% (2968; 7637)
+241023: mip =   1.835346000e+00 >=   1.223564000e+00  33.3% (2973; 7638)
+241465: mip =   1.835346000e+00 >=   1.223564000e+00  33.3% (2977; 7639)
+242295: mip =   1.835346000e+00 >=   1.223564000e+00  33.3% (2982; 7640)
+242796: mip =   1.835346000e+00 >=   1.223564000e+00  33.3% (2988; 7641)
+243979: mip =   1.835346000e+00 >=   1.223564000e+00  33.3% (3000; 7643)
+244537: mip =   1.835346000e+00 >=   1.223564000e+00  33.3% (3005; 7644)
+244761: mip =   1.835346000e+00 >=   1.223564000e+00  33.3% (3012; 7645)
Time used: 1684.5 secs.  Memory used: 401.8 Mb.
+245364: mip =   1.835346000e+00 >=   1.223564000e+00  33.3% (3017; 7645)
+246305: mip =   1.835346000e+00 >=   1.223564000e+00  33.3% (3024; 7648)
+247229: mip =   1.835346000e+00 >=   1.223564000e+00  33.3% (3034; 7649)
+248067: mip =   1.835346000e+00 >=   1.223564000e+00  33.3% (3041; 7652)
+248718: mip =   1.835346000e+00 >=   1.223564000e+00  33.3% (3045; 7653)
+249360: mip =   1.835346000e+00 >=   1.223564000e+00  33.3% (3049; 7654)
+250157: mip =   1.835346000e+00 >=   1.223564000e+00  33.3% (3053; 7655)
+251017: mip =   1.835346000e+00 >=   1.223564000e+00  33.3% (3058; 7657)
+252154: mip =   1.835346000e+00 >=   1.223564000e+00  33.3% (3073; 7659)
+253087: mip =   1.835346000e+00 >=   1.223564000e+00  33.3% (3078; 7660)
+253584: mip =   1.835346000e+00 >=   1.223564000e+00  33.3% (3084; 7661)
Time used: 1745.3 secs.  Memory used: 409.4 Mb.
+253621: mip =   1.835346000e+00 >=   1.223564000e+00  33.3% (3090; 7661)
+254298: mip =   1.835346000e+00 >=   1.223564000e+00  33.3% (3096; 7663)
+255407: mip =   1.835346000e+00 >=   1.223564000e+00  33.3% (3104; 7665)
+256586: mip =   1.835346000e+00 >=   1.223564000e+00  33.3% (3108; 7667)
+257172: mip =   1.835346000e+00 >=   1.223564000e+00  33.3% (3114; 7668)
+257207: mip =   1.835346000e+00 >=   1.223564000e+00  33.3% (3120; 7668)
+258036: mip =   1.835346000e+00 >=   1.223564000e+00  33.3% (3125; 7670)
+258656: mip =   1.835346000e+00 >=   1.223564000e+00  33.3% (3131; 7671)
+259788: mip =   1.835346000e+00 >=   1.223564000e+00  33.3% (3140; 7674)
+260344: mip =   1.835346000e+00 >=   1.223564000e+00  33.3% (3144; 7675)
+260443: mip =   1.835346000e+00 >=   1.223564000e+00  33.3% (3150; 7675)
Time used: 1806.2 secs.  Memory used: 415.7 Mb.
+261044: mip =   1.835346000e+00 >=   1.223564000e+00  33.3% (3155; 7676)
+261840: mip =   1.835346000e+00 >=   1.223564000e+00  33.3% (3162; 7678)
+262608: mip =   1.835346000e+00 >=   1.223564000e+00  33.3% (3168; 7679)
+264272: mip =   1.835346000e+00 >=   1.223564000e+00  33.3% (3171; 7701)
+265136: mip =   1.835346000e+00 >=   1.223564000e+00  33.3% (3176; 7702)
+265386: mip =   1.835346000e+00 >=   1.223564000e+00  33.3% (3179; 7702)
+267152: mip =   1.835346000e+00 >=   1.223564000e+00  33.3% (3186; 7705)
+268035: mip =   1.835346000e+00 >=   1.223564000e+00  33.3% (3206; 7705)
+270101: mip =   1.835346000e+00 >=   1.223564000e+00  33.3% (3214; 7712)
+271235: mip =   1.835346000e+00 >=   1.223564000e+00  33.3% (3235; 7717)
+272725: mip =   1.835346000e+00 >=   1.223564000e+00  33.3% (3252; 7720)
+273396: mip =   1.835346000e+00 >=   1.223564000e+00  33.3% (3246; 7745)
Time used: 1866.9 secs.  Memory used: 430.3 Mb.
+275179: mip =   1.835346000e+00 >=   1.223564000e+00  33.3% (3254; 7745)
+275313: mip =   1.835346000e+00 >=   1.223564000e+00  33.3% (3278; 7745)
+276410: mip =   1.835346000e+00 >=   1.223564000e+00  33.3% (3288; 7747)
+277556: mip =   1.835346000e+00 >=   1.223564000e+00  33.3% (3299; 7748)
+278434: mip =   1.835346000e+00 >=   1.223564000e+00  33.3% (3315; 7749)
+279047: mip =   1.835346000e+00 >=   1.223564000e+00  33.3% (3339; 7750)
+279659: mip =   1.835346000e+00 >=   1.223564000e+00  33.3% (3346; 7750)
+280148: mip =   1.835346000e+00 >=   1.223564000e+00  33.3% (3354; 7750)
+280856: mip =   1.835346000e+00 >=   1.223564000e+00  33.3% (3363; 7751)
+281719: mip =   1.835346000e+00 >=   1.223564000e+00  33.3% (3373; 7754)
+281962: mip =   1.835346000e+00 >=   1.223564000e+00  33.3% (3381; 7754)
Time used: 1927.2 secs.  Memory used: 439.7 Mb.
+282779: mip =   1.835346000e+00 >=   1.223564000e+00  33.3% (3390; 7755)
+283463: mip =   1.835346000e+00 >=   1.223564000e+00  33.3% (3399; 7756)
+284132: mip =   1.835346000e+00 >=   1.223564000e+00  33.3% (3411; 7757)
+285650: mip =   1.835346000e+00 >=   1.223564000e+00  33.3% (3431; 7758)
+287767: mip =   1.835346000e+00 >=   1.223564000e+00  33.3% (3450; 7764)
+288944: mip =   1.835346000e+00 >=   1.223564000e+00  33.3% (3469; 7767)
+290012: mip =   1.835346000e+00 >=   1.223564000e+00  33.3% (3487; 7770)
+291531: mip =   1.835346000e+00 >=   1.223564000e+00  33.3% (3492; 7772)
+292173: mip =   1.835346000e+00 >=   1.223564000e+00  33.3% (3496; 7773)
+292959: mip =   1.835346000e+00 >=   1.223564000e+00  33.3% (3504; 7774)
+293667: mip =   1.835346000e+00 >=   1.223564000e+00  33.3% (3506; 7775)
Time used: 1987.2 secs.  Memory used: 454.4 Mb.
+294796: mip =   1.835346000e+00 >=   1.223564000e+00  33.3% (3526; 7780)
+295840: mip =   1.835346000e+00 >=   1.223564000e+00  33.3% (3543; 7787)
+296656: mip =   1.835346000e+00 >=   1.223564000e+00  33.3% (3559; 7788)
+297323: mip =   1.835346000e+00 >=   1.223564000e+00  33.3% (3574; 7789)
+299228: mip =   1.835346000e+00 >=   1.223564000e+00  33.3% (3582; 7798)
+299952: mip =   1.835346000e+00 >=   1.223564000e+00  33.3% (3591; 7799)
+301051: mip =   1.835346000e+00 >=   1.223564000e+00  33.3% (3602; 7800)
+302020: mip =   1.835346000e+00 >=   1.223564000e+00  33.3% (3606; 7802)
+302889: mip =   1.835346000e+00 >=   1.223564000e+00  33.3% (3613; 7803)
+304570: mip =   1.835346000e+00 >=   1.223564000e+00  33.3% (3637; 7818)
+306539: mip =   1.835346000e+00 >=   1.223564000e+00  33.3% (3633; 7865)
+308081: mip =   1.835346000e+00 >=   1.223564000e+00  33.3% (3646; 7907)
Time used: 2047.6 secs.  Memory used: 472.3 Mb.
+309639: mip =   1.835346000e+00 >=   1.223564000e+00  33.3% (3669; 7934)
+311020: mip =   1.835346000e+00 >=   1.223564000e+00  33.3% (3690; 7939)
+312006: mip =   1.835346000e+00 >=   1.223564000e+00  33.3% (3675; 7990)
+313059: mip =   1.835346000e+00 >=   1.223564000e+00  33.3% (3688; 7992)
+313854: mip =   1.835346000e+00 >=   1.223564000e+00  33.3% (3700; 7994)
+314752: mip =   1.835346000e+00 >=   1.223564000e+00  33.3% (3714; 7995)
+315887: mip =   1.835346000e+00 >=   1.223564000e+00  33.3% (3723; 7997)
+316443: mip =   1.835346000e+00 >=   1.223564000e+00  33.3% (3737; 7998)
+317122: mip =   1.835346000e+00 >=   1.223564000e+00  33.3% (3753; 8001)
+319970: >>>>>   1.223564000e+00 >=   1.223564000e+00 < 0.1% (3765; 8004)
+319970: mip =   1.223564000e+00 >=     tree is empty   0.0% (0; 16259)
INTEGER OPTIMAL SOLUTION FOUND
Time used:   2102.6 secs
Memory used: 497.0 Mb (521172003 bytes)
Writing MIP solution to '/tmp/tmpa23nrktq.glpk.raw'...
189015 lines were written

Time in solver (for this epsilon): 2103.131501674652 s
Elapsed time (for this epsilon): 2106.2823181152344 s


Total elapsed time since execution of first epsilon: 30911.857672452927 s

Results:

E = 1.223564 mA
C = 21.0 points
C ~= 8.4 km^2

Minimum Epsilon for this instance = 13
Maximum Epsilon for this instance = 207

Current Epsilon = 13


Instance Epsilon Preprocessing Time: 0.01605820655822754 s


Updated solution vectors:
sol_E = [-1.223564]
sol_C = [21.0]
sol_eps = [13]
sol_gap = [0.0]
